196,563
628,379
533,429
364,842
681,-14
561,36
567,369
681,46
470,115
829,258
695,494
607,634
888,438
624,424
839,624
1161,406
148,490
415,213
766,433
746,-8
899,248
1066,467
356,355
663,349
888,438
624,424
921,528
1051,526
663,463
148,322
427,152
417,770
681,646
829,862
786,551
1194,240
598,150
702,427
